(set-logic QF_NRA)
(declare-fun b1 () Real)
(declare-fun b2 () Real)
(declare-fun d () Real)
(declare-fun q () Real)
(declare-fun r1 () Real)
(declare-fun r2 () Real)
(declare-fun v () Real)
(declare-fun s () Real)
(declare-fun F () Real)
(declare-fun J () Real)
(declare-fun T () Real)
(assert (and (= (- (- d (* d s)) (* b1 (* J s))) 0) (= (- (* v F) (* (+ d r2) J)) 0) (= (+ (- (+ (* b1 J) (* b2 (* J T))) (* (+ (+ d v) r1) F)) (* (- 1 q) (* r2 J))) 0) (= (- (+ (- (* r1 F) (* d T)) (* q (* r2 J))) (* b2 (* T J))) 0) (> F 0) (> J 0) (> T 0) (> s 0) (> b1 0) (> d 0) (> v 0) (> r1 0) (> r2 0) (> q 0) (> b1 b2)))
(eliminate-quantifiers (exists s F J T))
(exit)
